10
000 374 200 223 108 178 252 285 240 356
374 000 255 166 433 199 135 095 136 017
200 255 000 128 277 128 180 160 131 247
223 166 128 000 430 047 052 084 040 155
108 433 277 430 000 453 478 344 389 423
178 199 128 047 453 000 091 110 064 181
252 135 180 052 478 091 000 114 083 117
285 095 160 084 344 110 114 000 047 078
240 136 131 040 389 064 083 047 000 118
356 017 247 155 423 181 117 078 118 000
